M = 100;
P = array1d(2..3, [1, 2]);
T = 8;
cp = 12;
g = array3d(1..2, 2..3, 1..8, [
   5, 2, 0, 0, 0, 0, 0, 0,     6, 0, 0, 4, 0, 0, 0, 0,
   0, 0, 0, 0, 0, 0, 0, 0,     1, 3, 2, 1, 0, 0, 0, 0
]);
m = 1;
n = 3;
p = [1, 1];